echo            both
log             ../log/log.liggghts

atom_style      granular
atom_modify     map array
boundary        f f f
newton          off

communicate     single vel yes

units           si
processors      2 2 2

region          reg block 0.0 0.5 -0.1 0.1 -0.1 0.1 units box
create_box      1 reg

neighbor        0.002 bin
neigh_modify    delay 0


# Material properties required for granular pair styles

include      in.contact_settings

timestep    0.00001

# walls
fix     xwalls1 all wall/gran model hertz tangential history primitive type 1 xplane 0.0
fix     xwalls2 all wall/gran model hertz tangential history primitive type 1 xplane 0.5
fix     ywalls1 all wall/gran model hertz tangential history primitive type 1 yplane -0.1
fix     ywalls2 all wall/gran model hertz tangential history primitive type 1 yplane 0.1
fix     zwalls1 all wall/gran model hertz tangential history primitive type 1 zplane -0.1
fix     zwalls2 all wall/gran model hertz tangential history primitive type 1 zplane 0.1

fix         gravi all gravity 9.81 vector 0.0 0.0 -1.0

# heat transfer
fix          m7 all property/global thermalConductivity peratomtype 5000  # lambda in [W/(K*m)]
fix             m8 all property/global thermalCapacity     peratomtype 870  # cp in [J/(kg*K)]

fix             heattransfer all heat/gran/conduction initial_temperature 300



# particle distribution
include         in.particleSizeDistribution1

# insert in bed volume
region      bc block 0.0 0.5 -0.1 0.1 -0.1 0.1 units box
fix             ins1 all insert/pack seed 32452843 distributiontemplate pdd1 all_in yes insert_every 100 overlapcheck yes region bc volumefraction_region 0.8

#insert the first particles
run             1


# apply nve integration to all particles that are inserted as single particles
fix         integr all nve/sphere

# output settings, include total thermal energy
thermo_style    custom step time atoms ke # v_nForceReg v_totalForce v_avForcePerPart
thermo          100


dump            dmp all custom 1000 post/dump*.liggghts_init id type x y z ix iy iz vx vy vz fx fy fz omegax omegay omegaz radius density f_Temp[0]


# run for some steps
label           run1
run		100000 post no

# stop insertion		
unfix		ins1


write_restart   post/restart/liggghts.restart

